Version identifier: 12.10.0.0 | 2019-11-26 | 843d4de
CPXPARAM_WorkMem                                 28672
Tried aggregator 2 times.
MIP Presolve eliminated 24 rows and 0 columns.
MIP Presolve added 48 rows and 0 columns.
Aggregator did 60 substitutions.
Reduced MIP has 126 rows, 110 columns, and 502 nonzeros.
Reduced MIP has 110 binaries, 0 generals, 0 SOSs, and 0 indicators.
Presolve time = 0,00 sec. (1,14 ticks)
Found incumbent of value 92,000000 after 0,00 sec. (1,29 ticks)
Probing time = 0,00 sec. (0,80 ticks)
Tried aggregator 1 time.
Detecting symmetries...
Reduced MIP has 126 rows, 110 columns, and 502 nonzeros.
Reduced MIP has 110 binaries, 0 generals, 0 SOSs, and 0 indicators.
Presolve time = 0,00 sec. (0,44 ticks)
Probing time = 0,00 sec. (0,79 ticks)
Clique table members: 411.
MIP emphasis: balance optimality and feasibility.
MIP search method: dynamic search.
Parallel mode: deterministic, using up to 16 threads.
Root relaxation solution time = 0,00 sec. (0,30 ticks)

        Nodes                                         Cuts/
   Node  Left     Objective  IInf  Best Integer    Best Bound    ItCnt     Gap

*     0+    0                           92,0000        0,0000           100,00%
*     0+    0                           91,0000        0,0000           100,00%
*     0+    0                           85,0000        0,0000           100,00%
      0     0       50,0000   110       85,0000       50,0000       47   41,18%
      0     0       59,0625   110       85,0000      Cuts: 50       89   30,51%
      0     0       60,7500   110       85,0000     Cuts: 131      121   28,53%
      0     0       60,9000   110       85,0000      Cuts: 11      125   28,35%
      0     0       60,9805   110       85,0000  ZeroHalf: 28      148   28,26%
      0     0       61,1980   110       85,0000      Cuts: 69      171   28,00%
Detecting symmetries...
      0     0       61,2901   110       85,0000      Cuts: 76      189   27,89%
      0     0       61,3667   110       85,0000      Cuts: 70      202   27,80%
      0     0       61,3859   110       85,0000   ZeroHalf: 8      212   27,78%
      0     0       61,3867   110       85,0000      Cuts: 70      218   27,78%
      0     0       61,3867   110       85,0000   ZeroHalf: 3      220   27,78%
*     0+    0                           84,0000       61,3867            26,92%
      0     0        cutoff             84,0000       84,0000      220    0,00%
Elapsed time = 0,06 sec. (29,14 ticks, tree = 0,01 MB, solutions = 4)

Clique cuts applied:  11
Cover cuts applied:  19
Flow cuts applied:  6
Mixed integer rounding cuts applied:  27
Zero-half cuts applied:  8
Gomory fractional cuts applied:  6

Root node processing (before b&c):
  Real time             =    0,06 sec. (29,16 ticks)
Parallel b&c, 16 threads:
  Real time             =    0,00 sec. (0,00 ticks)
  Sync time (average)   =    0,00 sec.
  Wait time (average)   =    0,00 sec.
                          ------------
Total (root+branch&cut) =    0,06 sec. (29,16 ticks)
